BAYES
37
2 3 3 2 3 2 3 2 3 3 2 3 2 2 3 4 2 4 2 3 3 3 2 2 3 4 2 3 4 4 4 4 3 2 3 3 3 
37
2 5 0   # HISTORY
2 4 1   # CVP
2 4 2   # PCWP
1 3   # HYPOVOLEMIA
3 3 5 4   # LVEDVOLUME
1 5   # LVFAILURE
3 3 5 6   # STROKEVOLUME
1 7   # ERRLOWOUTPUT
3 7 34 8   # HRBP
3 10 34 9   # HREKG
1 10   # ERRCAUTER
3 10 34 11   # HRSAT
1 12   # INSUFFANESTH
1 13   # ANAPHYLAXIS
2 13 14   # TPR
3 32 30 15   # EXPCO2
1 16   # KINKEDTUBE
3 24 30 17   # MINVOL
1 18   # FIO2
3 18 31 19   # PVSAT
3 19 23 20   # SAO2
2 22 21   # PAP
1 22   # PULMEMBOLUS
3 24 22 23   # SHUNT
1 24   # INTUBATION
4 24 16 29 25   # PRESS
1 26   # DISCONNECT
1 27   # MINVOLSET
2 27 28   # VENTMACH
3 26 28 29   # VENTTUBE
4 24 16 29 30   # VENTLUNG
3 24 30 31   # VENTALV
2 31 32   # ARTCO2
5 32 12 20 14 33   # CATECHOL
2 33 34   # HR
3 34 6 35   # CO
3 35 14 36   # BP


4
  0.9 0.1 
  0.01 0.99 

9
  0.95 0.04 0.01 
  0.04 0.95 0.01 
  0.01 0.29 0.7 

9
  0.95 0.04 0.01 
  0.04 0.95 0.01 
  0.01 0.04 0.95 

2
  0.2 0.8 

12
  0.95 0.04 0.01 
  0.98 0.01 0.01 
  0.01 0.09 0.9 
  0.05 0.9 0.05 

2
  0.05 0.95 

12
  0.98 0.01 0.01 
  0.95 0.04 0.01 
  0.5 0.49 0.01 
  0.05 0.9 0.05 

2
  0.05 0.95 

18
  0.98 0.01 0.01 
  0.4 0.59 0.01 
  0.3 0.4 0.3 
  0.98 0.01 0.01 
  0.01 0.98 0.01 
  0.01 0.01 0.98 

18
  0.333333 0.333333 0.333333 
  0.333333 0.333333 0.333333 
  0.333333 0.333333 0.333333 
  0.98 0.01 0.01 
  0.01 0.98 0.01 
  0.01 0.01 0.98 

2
  0.1 0.9 

18
  0.333333 0.333333 0.333333 
  0.333333 0.333333 0.333333 
  0.333333 0.333333 0.333333 
  0.98 0.01 0.01 
  0.01 0.98 0.01 
  0.01 0.01 0.98 

2
  0.1 0.9 

2
  0.01 0.99 

6
  0.98 0.01 0.01 
  0.3 0.4 0.3 

48
  0.97 0.01 0.01 0.01 
  0.01 0.97 0.01 0.01 
  0.01 0.97 0.01 0.01 
  0.01 0.97 0.01 0.01 
  0.97 0.01 0.01 0.01 
  0.01 0.01 0.97 0.01 
  0.01 0.01 0.97 0.01 
  0.01 0.01 0.97 0.01 
  0.97 0.01 0.01 0.01 
  0.01 0.01 0.01 0.97 
  0.01 0.01 0.01 0.97 
  0.01 0.01 0.01 0.97 

2
  0.04 0.96 

48
  0.97 0.01 0.01 0.01 
  0.01 0.97 0.01 0.01 
  0.01 0.01 0.97 0.01 
  0.01 0.01 0.01 0.97 
  0.97 0.01 0.01 0.01 
  0.6 0.38 0.01 0.01 
  0.5 0.48 0.01 0.01 
  0.5 0.48 0.01 0.01 
  0.97 0.01 0.01 0.01 
  0.01 0.97 0.01 0.01 
  0.01 0.01 0.97 0.01 
  0.01 0.01 0.01 0.97 

2
  0.05 0.95 

24
  1 0 0 
  0.99 0.01 0 
  0.95 0.04 0.01 
  0.95 0.04 0.01 
  1 0 0 
  0.95 0.04 0.01 
  0.01 0.95 0.04 
  0.01 0.01 0.98 

18
  0.98 0.01 0.01 
  0.01 0.98 0.01 
  0.01 0.01 0.98 
  0.98 0.01 0.01 
  0.98 0.01 0.01 
  0.69 0.3 0.01 

6
  0.01 0.19 0.8 
  0.05 0.9 0.05 

2
  0.01 0.99 

12
  0.1 0.9 
  0.1 0.9 
  0.01 0.99 
  0.95 0.05 
  0.95 0.05 
  0.05 0.95 

3
  0.92 0.03 0.05 

96
  0.97 0.01 0.01 0.01 
  0.01 0.3 0.49 0.2 
  0.01 0.01 0.08 0.9 
  0.01 0.01 0.01 0.97 
  0.97 0.01 0.01 0.01 
  0.1 0.84 0.05 0.01 
  0.05 0.25 0.25 0.45 
  0.01 0.15 0.25 0.59 
  0.97 0.01 0.01 0.01 
  0.01 0.29 0.3 0.4 
  0.01 0.01 0.08 0.9 
  0.01 0.01 0.01 0.97 
  0.97 0.01 0.01 0.01 
  0.01 0.97 0.01 0.01 
  0.01 0.01 0.97 0.01 
  0.01 0.01 0.01 0.97 
  0.97 0.01 0.01 0.01 
  0.4 0.58 0.01 0.01 
  0.2 0.75 0.04 0.01 
  0.2 0.7 0.09 0.01 
  0.97 0.01 0.01 0.01 
  0.01 0.9 0.08 0.01 
  0.01 0.01 0.38 0.6 
  0.01 0.01 0.01 0.97 

2
  0.1 0.9 

3
  0.05 0.9 0.05 

12
  0.05 0.93 0.01 0.01 
  0.05 0.01 0.93 0.01 
  0.05 0.01 0.01 0.93 

32
  0.97 0.01 0.01 0.01 
  0.97 0.01 0.01 0.01 
  0.97 0.01 0.01 0.01 
  0.97 0.01 0.01 0.01 
  0.97 0.01 0.01 0.01 
  0.01 0.97 0.01 0.01 
  0.01 0.01 0.97 0.01 
  0.01 0.01 0.01 0.97 

96
  0.97 0.01 0.01 0.01 
  0.95 0.03 0.01 0.01 
  0.4 0.58 0.01 0.01 
  0.3 0.68 0.01 0.01 
  0.97 0.01 0.01 0.01 
  0.97 0.01 0.01 0.01 
  0.97 0.01 0.01 0.01 
  0.97 0.01 0.01 0.01 
  0.97 0.01 0.01 0.01 
  0.95 0.03 0.01 0.01 
  0.5 0.48 0.01 0.01 
  0.3 0.68 0.01 0.01 
  0.97 0.01 0.01 0.01 
  0.01 0.97 0.01 0.01 
  0.01 0.01 0.97 0.01 
  0.01 0.01 0.01 0.97 
  0.97 0.01 0.01 0.01 
  0.97 0.01 0.01 0.01 
  0.97 0.01 0.01 0.01 
  0.97 0.01 0.01 0.01 
  0.97 0.01 0.01 0.01 
  0.01 0.97 0.01 0.01 
  0.01 0.01 0.97 0.01 
  0.01 0.01 0.01 0.97 

48
  0.97 0.01 0.01 0.01 
  0.01 0.97 0.01 0.01 
  0.01 0.01 0.97 0.01 
  0.01 0.01 0.01 0.97 
  0.97 0.01 0.01 0.01 
  0.01 0.97 0.01 0.01 
  0.01 0.01 0.97 0.01 
  0.01 0.01 0.01 0.97 
  0.97 0.01 0.01 0.01 
  0.03 0.95 0.01 0.01 
  0.01 0.94 0.04 0.01 
  0.01 0.88 0.1 0.01 

12
  0.01 0.01 0.98 
  0.01 0.01 0.98 
  0.04 0.92 0.04 
  0.9 0.09 0.01 

108
  0.01 0.99 
  0.01 0.99 
  0.01 0.99 
  0.01 0.99 
  0.01 0.99 
  0.01 0.99 
  0.01 0.99 
  0.01 0.99 
  0.01 0.99 
  0.01 0.99 
  0.01 0.99 
  0.01 0.99 
  0.01 0.99 
  0.01 0.99 
  0.01 0.99 
  0.05 0.95 
  0.05 0.95 
  0.01 0.99 
  0.01 0.99 
  0.01 0.99 
  0.01 0.99 
  0.05 0.95 
  0.05 0.95 
  0.01 0.99 
  0.05 0.95 
  0.05 0.95 
  0.01 0.99 
  0.05 0.95 
  0.05 0.95 
  0.01 0.99 
  0.05 0.95 
  0.05 0.95 
  0.01 0.99 
  0.05 0.95 
  0.05 0.95 
  0.01 0.99 
  0.7 0.3 
  0.7 0.3 
  0.1 0.9 
  0.7 0.3 
  0.7 0.3 
  0.1 0.9 
  0.7 0.3 
  0.7 0.3 
  0.1 0.9 
  0.95 0.05 
  0.99 0.01 
  0.3 0.7 
  0.95 0.05 
  0.99 0.01 
  0.3 0.7 
  0.95 0.05 
  0.99 0.01 
  0.3 0.7 

6
  0.05 0.9 0.05 
  0.01 0.09 0.9 

27
  0.98 0.01 0.01 
  0.95 0.04 0.01 
  0.8 0.19 0.01 
  0.95 0.04 0.01 
  0.04 0.95 0.01 
  0.01 0.04 0.95 
  0.3 0.69 0.01 
  0.01 0.3 0.69 
  0.01 0.01 0.98 

27
  0.98 0.01 0.01 
  0.98 0.01 0.01 
  0.9 0.09 0.01 
  0.98 0.01 0.01 
  0.1 0.85 0.05 
  0.05 0.2 0.75 
  0.3 0.6 0.1 
  0.05 0.4 0.55 
  0.01 0.09 0.9 


